N = 10;
Dist = [|0, 651, 855, 374, 167, 380, 364, 215, 687, 274
| 651, 0, 719, 960, 700, 664, 74, 624, 651, 176
| 855, 719, 0, 547, 747, 251, 168, 474, 389, 277
| 374, 960, 547, 0, 948, 656, 705, 571, 225, 702
| 167, 700, 747, 948, 0, 333, 864, 787, 795, 58
| 380, 664, 251, 656, 333, 0, 235, 842, 33, 825
| 364, 74, 168, 705, 864, 235, 0, 324, 411, 275
| 215, 624, 474, 571, 787, 842, 324, 0, 68, 217
| 687, 651, 389, 225, 795, 33, 411, 68, 0, 936
| 274, 176, 277, 702, 58, 825, 275, 217, 936, 0 |];